benchmark_str_length/p2_10_7-3.txt
{
	"num_strings": 10,
	"alphabet": "ACGT",
	"strings": [
		"CGACATT",
		"GGC",
		"TGAC",
		"CCCGT",
		"CG",
		"AAGA",
		"CC",
		"TACA",
		"CACAG",
		"ACCC"
	],
	"str_length":[7,3,4,5,2,4,2,4,5,4]
}